400 2109 
1 43 1
1 70 1
1 147 1
1 159 1
1 163 1
1 174 1
1 207 1
1 303 1
1 311 1
1 349 1
1 364 1
2 14 1
2 69 1
2 71 1
2 210 1
2 211 1
2 224 1
2 285 1
2 319 1
2 347 1
2 386 1
2 397 1
3 20 1
3 32 1
3 45 1
3 80 1
3 139 1
3 175 1
3 253 1
3 261 1
3 272 1
3 365 1
4 21 1
4 41 1
4 69 1
4 97 1
4 133 1
4 145 1
4 233 1
4 313 1
4 343 1
4 346 1
4 400 1
5 30 1
5 37 1
5 50 1
5 95 1
5 133 1
5 142 1
5 207 1
5 214 1
5 230 1
5 333 1
6 42 1
6 90 1
6 99 1
6 139 1
6 272 1
6 384 1
6 393 1
6 399 1
6 400 1
7 34 1
7 50 1
7 135 1
7 157 1
7 297 1
7 320 1
7 363 1
7 389 1
7 391 1
8 17 1
8 190 1
8 218 1
8 277 1
8 300 1
8 338 1
8 351 1
8 395 1
8 400 1
9 58 1
9 60 1
9 66 1
9 69 1
9 78 1
9 194 1
9 215 1
9 232 1
9 246 1
9 263 1
9 372 1
10 53 1
10 77 1
10 78 1
10 117 1
10 138 1
10 149 1
10 200 1
10 244 1
10 247 1
10 392 1
11 24 1
11 68 1
11 104 1
11 108 1
11 179 1
11 223 1
11 239 1
11 249 1
11 300 1
11 316 1
11 325 1
12 48 1
12 84 1
12 140 1
12 174 1
12 211 1
12 274 1
12 276 1
12 306 1
12 365 1
12 366 1
13 14 1
13 35 1
13 111 1
13 120 1
13 162 1
13 224 1
13 299 1
13 368 1
13 372 1
13 398 1
14 31 1
14 61 1
14 85 1
14 103 1
14 277 1
14 280 1
14 300 1
14 312 1
14 350 1
14 382 1
15 40 1
15 49 1
15 71 1
15 89 1
15 136 1
15 247 1
15 283 1
15 315 1
15 338 1
15 341 1
16 102 1
16 152 1
16 184 1
16 193 1
16 290 1
16 291 1
16 319 1
16 383 1
16 396 1
16 398 1
17 34 1
17 52 1
17 81 1
17 128 1
17 146 1
17 159 1
17 260 1
17 325 1
17 329 1
17 350 1
17 380 1
18 33 1
18 43 1
18 153 1
18 203 1
18 287 1
18 307 1
18 388 1
19 46 1
19 47 1
19 82 1
19 98 1
19 132 1
19 225 1
19 245 1
19 256 1
19 296 1
19 338 1
20 125 1
20 173 1
20 221 1
20 239 1
20 279 1
20 283 1
20 287 1
20 303 1
20 327 1
20 372 1
21 41 1
21 69 1
21 100 1
21 164 1
21 211 1
21 243 1
21 287 1
21 342 1
21 369 1
22 89 1
22 125 1
22 311 1
22 317 1
22 319 1
22 366 1
22 370 1
22 372 1
22 379 1
22 385 1
23 97 1
23 144 1
23 211 1
23 233 1
23 239 1
23 258 1
23 320 1
23 341 1
23 356 1
24 26 1
24 101 1
24 127 1
24 136 1
24 139 1
24 148 1
24 235 1
24 239 1
24 255 1
24 295 1
24 387 1
25 34 1
25 90 1
25 182 1
25 207 1
25 267 1
25 346 1
25 367 1
25 370 1
26 30 1
26 75 1
26 97 1
26 98 1
26 128 1
26 145 1
26 152 1
26 248 1
26 346 1
26 364 1
26 380 1
27 103 1
27 151 1
27 184 1
27 195 1
27 254 1
27 287 1
27 295 1
27 307 1
27 341 1
27 350 1
27 379 1
28 35 1
28 101 1
28 125 1
28 224 1
28 242 1
28 270 1
28 271 1
28 292 1
28 328 1
28 371 1
28 383 1
29 78 1
29 163 1
29 188 1
29 197 1
29 225 1
29 243 1
29 257 1
29 279 1
29 281 1
29 373 1
29 387 1
30 59 1
30 143 1
30 179 1
30 246 1
30 265 1
30 318 1
30 327 1
30 330 1
30 375 1
30 386 1
31 39 1
31 50 1
31 63 1
31 73 1
31 83 1
31 115 1
31 128 1
31 189 1
31 297 1
31 318 1
31 332 1
32 130 1
32 146 1
32 163 1
32 169 1
32 171 1
32 172 1
32 199 1
32 363 1
32 373 1
32 393 1
32 397 1
33 101 1
33 143 1
33 169 1
33 236 1
33 242 1
33 251 1
33 376 1
33 377 1
33 394 1
34 94 1
34 97 1
34 151 1
34 164 1
34 206 1
34 281 1
34 284 1
34 330 1
34 351 1
34 360 1
34 365 1
35 86 1
35 145 1
35 182 1
35 205 1
35 215 1
35 288 1
35 291 1
35 334 1
36 42 1
36 114 1
36 131 1
36 293 1
36 314 1
36 317 1
36 340 1
36 356 1
36 391 1
37 170 1
37 219 1
37 232 1
37 234 1
37 258 1
37 304 1
37 335 1
37 354 1
37 364 1
37 386 1
38 130 1
38 245 1
38 260 1
38 297 1
38 314 1
38 352 1
38 357 1
38 364 1
39 48 1
39 68 1
39 87 1
39 97 1
39 170 1
39 181 1
39 306 1
39 318 1
39 335 1
39 362 1
40 62 1
40 163 1
40 183 1
40 210 1
40 220 1
40 240 1
40 267 1
40 326 1
40 349 1
40 356 1
41 66 1
41 145 1
41 195 1
41 198 1
41 210 1
41 248 1
41 280 1
41 300 1
41 337 1
41 363 1
41 366 1
42 45 1
42 46 1
42 50 1
42 110 1
42 152 1
42 168 1
42 187 1
42 202 1
42 253 1
42 260 1
42 264 1
43 107 1
43 112 1
43 136 1
43 283 1
43 294 1
43 299 1
43 300 1
43 321 1
43 338 1
43 341 1
44 189 1
44 214 1
44 227 1
44 233 1
44 243 1
44 261 1
44 315 1
44 332 1
44 360 1
44 367 1
44 383 1
45 64 1
45 104 1
45 170 1
45 202 1
45 217 1
45 280 1
45 331 1
45 370 1
45 390 1
46 93 1
46 147 1
46 171 1
46 218 1
46 259 1
46 284 1
46 303 1
46 338 1
47 70 1
47 125 1
47 222 1
47 234 1
47 264 1
47 280 1
47 296 1
47 299 1
47 302 1
47 304 1
48 65 1
48 197 1
48 237 1
48 255 1
48 270 1
48 283 1
48 324 1
48 365 1
48 388 1
49 55 1
49 70 1
49 132 1
49 187 1
49 204 1
49 231 1
49 330 1
49 348 1
49 373 1
50 114 1
50 121 1
50 145 1
50 149 1
50 161 1
50 196 1
50 205 1
50 207 1
50 245 1
50 289 1
51 63 1
51 110 1
51 118 1
51 243 1
51 244 1
51 310 1
52 79 1
52 85 1
52 95 1
52 157 1
52 211 1
52 240 1
52 258 1
52 270 1
52 275 1
52 357 1
53 83 1
53 93 1
53 299 1
53 300 1
53 309 1
53 346 1
53 352 1
54 63 1
54 96 1
54 182 1
54 185 1
54 203 1
54 211 1
54 267 1
54 289 1
54 361 1
54 364 1
54 385 1
55 85 1
55 168 1
55 217 1
55 264 1
55 265 1
55 266 1
55 283 1
55 395 1
56 66 1
56 155 1
56 162 1
56 181 1
56 186 1
56 194 1
56 226 1
56 316 1
56 329 1
56 382 1
57 91 1
57 103 1
57 171 1
57 180 1
57 201 1
57 252 1
57 266 1
57 280 1
57 291 1
57 364 1
58 65 1
58 83 1
58 85 1
58 95 1
58 175 1
58 236 1
58 248 1
58 275 1
59 179 1
59 200 1
59 269 1
59 300 1
59 312 1
59 315 1
59 319 1
59 332 1
59 346 1
59 372 1
60 228 1
60 249 1
60 263 1
60 290 1
60 303 1
60 308 1
60 313 1
60 325 1
61 77 1
61 80 1
61 136 1
61 180 1
61 230 1
61 253 1
61 269 1
61 274 1
61 372 1
61 385 1
62 135 1
62 145 1
62 170 1
62 198 1
62 229 1
62 295 1
62 296 1
62 369 1
62 381 1
62 389 1
63 70 1
63 88 1
63 143 1
63 190 1
63 197 1
63 250 1
63 294 1
63 326 1
63 337 1
63 351 1
64 104 1
64 159 1
64 173 1
64 183 1
64 188 1
64 235 1
64 271 1
64 309 1
64 314 1
64 346 1
64 369 1
65 121 1
65 129 1
65 133 1
65 152 1
65 154 1
65 166 1
65 171 1
65 186 1
65 237 1
66 109 1
66 122 1
66 175 1
66 203 1
66 229 1
66 341 1
66 348 1
66 376 1
67 93 1
67 99 1
67 133 1
67 196 1
67 225 1
67 270 1
67 328 1
67 335 1
67 365 1
68 132 1
68 186 1
68 190 1
68 198 1
68 205 1
68 313 1
68 359 1
68 366 1
69 212 1
69 225 1
69 248 1
69 258 1
69 267 1
69 305 1
69 336 1
69 339 1
70 142 1
70 198 1
70 273 1
70 287 1
70 308 1
70 323 1
70 364 1
70 377 1
70 396 1
71 91 1
71 107 1
71 139 1
71 227 1
71 339 1
71 357 1
71 363 1
71 388 1
72 76 1
72 85 1
72 150 1
72 181 1
72 222 1
72 338 1
72 347 1
72 352 1
72 384 1
73 75 1
73 192 1
73 226 1
73 296 1
73 321 1
73 370 1
74 106 1
74 123 1
74 142 1
74 324 1
74 363 1
75 95 1
75 97 1
75 122 1
75 131 1
75 169 1
75 179 1
75 315 1
75 325 1
75 362 1
75 391 1
76 122 1
76 136 1
76 228 1
76 299 1
76 310 1
76 323 1
76 328 1
76 337 1
76 364 1
77 95 1
77 98 1
77 107 1
77 120 1
77 156 1
77 211 1
77 230 1
77 285 1
77 289 1
77 352 1
78 134 1
78 187 1
78 199 1
78 240 1
78 283 1
79 96 1
79 133 1
79 139 1
79 211 1
79 236 1
79 241 1
79 377 1
79 395 1
80 90 1
80 158 1
80 164 1
80 186 1
80 221 1
80 238 1
80 305 1
80 308 1
80 361 1
80 364 1
81 140 1
81 253 1
81 270 1
81 273 1
81 294 1
81 330 1
81 389 1
81 397 1
81 400 1
82 186 1
82 189 1
82 294 1
82 324 1
82 340 1
82 356 1
82 373 1
83 128 1
83 162 1
83 166 1
83 191 1
83 216 1
83 266 1
83 292 1
83 345 1
83 378 1
84 111 1
84 134 1
84 144 1
84 208 1
84 321 1
84 340 1
84 351 1
84 374 1
85 250 1
85 257 1
85 313 1
85 332 1
85 359 1
86 119 1
86 198 1
86 210 1
86 303 1
86 351 1
86 389 1
87 139 1
87 145 1
87 280 1
87 301 1
87 328 1
87 359 1
88 107 1
88 159 1
88 171 1
88 172 1
88 183 1
88 229 1
88 234 1
88 274 1
88 369 1
88 374 1
89 106 1
89 143 1
89 158 1
89 246 1
89 268 1
89 310 1
89 350 1
89 354 1
90 95 1
90 190 1
90 209 1
90 237 1
90 257 1
90 291 1
90 297 1
90 315 1
90 337 1
91 96 1
91 109 1
91 172 1
91 369 1
91 399 1
92 134 1
92 147 1
92 159 1
92 197 1
92 337 1
92 370 1
92 387 1
92 399 1
93 94 1
93 96 1
93 110 1
93 115 1
93 148 1
93 156 1
93 235 1
93 293 1
93 346 1
93 355 1
93 399 1
94 133 1
94 141 1
94 156 1
94 283 1
94 287 1
94 363 1
94 394 1
94 400 1
95 101 1
95 124 1
95 292 1
95 304 1
95 326 1
95 330 1
95 375 1
96 120 1
96 154 1
96 175 1
96 183 1
96 199 1
96 215 1
96 238 1
96 255 1
96 296 1
96 348 1
97 100 1
97 131 1
97 170 1
97 175 1
97 301 1
97 372 1
97 387 1
98 133 1
98 172 1
98 173 1
98 180 1
98 212 1
98 251 1
98 369 1
99 102 1
99 116 1
99 126 1
99 155 1
99 181 1
99 270 1
99 290 1
99 354 1
100 103 1
100 108 1
100 130 1
100 132 1
100 139 1
100 225 1
100 293 1
100 294 1
100 328 1
100 393 1
101 166 1
101 172 1
101 318 1
101 371 1
102 160 1
102 169 1
102 186 1
102 295 1
102 400 1
103 118 1
103 159 1
103 160 1
103 164 1
103 176 1
103 225 1
103 247 1
103 248 1
103 292 1
103 296 1
104 109 1
104 131 1
104 152 1
104 177 1
104 295 1
104 386 1
104 391 1
104 399 1
105 115 1
105 205 1
105 206 1
105 208 1
105 241 1
105 245 1
105 303 1
105 320 1
105 370 1
106 125 1
106 131 1
106 234 1
106 266 1
106 289 1
106 300 1
106 362 1
107 161 1
107 218 1
107 221 1
107 227 1
107 243 1
107 256 1
107 260 1
107 283 1
107 342 1
107 392 1
108 144 1
108 241 1
108 242 1
108 283 1
108 285 1
108 329 1
108 354 1
109 148 1
109 160 1
109 335 1
109 345 1
109 347 1
109 350 1
109 399 1
110 113 1
110 133 1
110 134 1
110 218 1
110 233 1
110 301 1
110 308 1
110 333 1
111 150 1
111 161 1
111 182 1
111 253 1
111 280 1
111 303 1
111 345 1
111 351 1
111 397 1
112 125 1
112 138 1
112 151 1
112 154 1
112 157 1
112 252 1
112 291 1
112 352 1
113 128 1
113 144 1
113 239 1
113 240 1
113 257 1
113 314 1
113 348 1
114 144 1
114 180 1
114 242 1
114 297 1
114 322 1
114 332 1
114 361 1
114 362 1
114 369 1
114 387 1
115 132 1
115 197 1
115 215 1
115 230 1
115 278 1
115 310 1
115 394 1
115 397 1
116 125 1
116 166 1
116 183 1
116 213 1
116 255 1
116 260 1
116 293 1
116 372 1
116 383 1
117 137 1
117 178 1
117 223 1
117 271 1
117 279 1
117 333 1
118 133 1
118 134 1
118 150 1
118 257 1
118 327 1
119 122 1
119 237 1
119 272 1
119 294 1
119 298 1
119 348 1
120 143 1
120 163 1
120 208 1
120 232 1
120 289 1
120 304 1
121 193 1
121 207 1
121 232 1
121 240 1
121 254 1
121 289 1
121 341 1
121 365 1
122 129 1
122 145 1
122 161 1
122 179 1
122 270 1
122 309 1
122 370 1
123 124 1
123 142 1
123 225 1
123 324 1
123 388 1
124 197 1
124 233 1
124 283 1
124 305 1
124 343 1
124 366 1
124 372 1
124 386 1
125 195 1
125 258 1
125 282 1
125 352 1
126 146 1
126 265 1
126 339 1
126 365 1
127 134 1
127 156 1
127 189 1
127 238 1
127 275 1
127 304 1
127 325 1
127 376 1
128 178 1
128 248 1
128 312 1
128 341 1
128 360 1
128 370 1
129 155 1
129 177 1
129 185 1
129 271 1
129 283 1
129 390 1
130 165 1
130 185 1
130 283 1
130 316 1
130 355 1
130 363 1
130 382 1
130 384 1
131 172 1
131 219 1
131 233 1
131 234 1
131 394 1
131 399 1
132 135 1
132 222 1
132 264 1
132 275 1
132 307 1
132 334 1
133 151 1
133 199 1
133 202 1
133 261 1
133 280 1
133 294 1
134 208 1
134 254 1
134 257 1
134 275 1
134 276 1
134 302 1
134 346 1
135 148 1
135 192 1
135 251 1
135 282 1
135 369 1
135 373 1
135 385 1
136 186 1
136 247 1
136 277 1
136 308 1
136 310 1
136 390 1
136 398 1
136 399 1
137 143 1
137 153 1
137 166 1
137 173 1
137 200 1
137 207 1
137 209 1
137 284 1
137 399 1
138 144 1
138 170 1
138 205 1
138 211 1
138 230 1
138 358 1
139 167 1
139 169 1
139 199 1
139 220 1
139 251 1
139 340 1
139 396 1
140 144 1
140 263 1
140 284 1
140 288 1
140 315 1
140 365 1
140 369 1
140 377 1
140 385 1
141 144 1
141 188 1
141 307 1
141 328 1
141 347 1
141 352 1
142 145 1
142 146 1
142 213 1
142 269 1
142 288 1
142 310 1
142 361 1
143 196 1
143 239 1
143 273 1
143 316 1
143 341 1
144 170 1
144 176 1
144 187 1
144 267 1
144 273 1
144 314 1
144 377 1
144 382 1
145 181 1
145 217 1
145 223 1
145 239 1
145 332 1
145 365 1
145 383 1
146 165 1
146 199 1
146 217 1
146 224 1
146 246 1
146 355 1
146 356 1
146 381 1
147 177 1
147 228 1
147 245 1
147 315 1
147 325 1
147 360 1
148 157 1
148 186 1
148 244 1
148 262 1
148 341 1
149 201 1
149 209 1
149 234 1
149 267 1
149 365 1
149 383 1
150 169 1
150 245 1
150 255 1
150 257 1
150 262 1
150 275 1
150 310 1
150 326 1
151 166 1
151 215 1
151 224 1
152 165 1
152 266 1
152 348 1
153 374 1
153 377 1
153 387 1
154 175 1
154 204 1
154 252 1
154 325 1
154 359 1
154 362 1
154 392 1
155 161 1
155 232 1
155 301 1
155 379 1
156 182 1
156 200 1
156 212 1
156 221 1
156 320 1
156 350 1
156 357 1
156 362 1
157 169 1
157 174 1
157 199 1
157 212 1
157 217 1
157 274 1
157 315 1
157 359 1
158 228 1
158 231 1
158 254 1
158 380 1
158 388 1
159 199 1
159 206 1
159 316 1
159 323 1
159 362 1
159 363 1
160 185 1
160 259 1
160 262 1
160 304 1
160 327 1
160 381 1
161 181 1
161 200 1
161 223 1
161 376 1
161 381 1
162 183 1
162 206 1
162 229 1
162 250 1
162 282 1
162 362 1
162 381 1
162 392 1
163 221 1
163 258 1
163 276 1
163 333 1
163 342 1
163 384 1
164 201 1
164 208 1
164 217 1
164 238 1
164 264 1
164 328 1
165 174 1
165 209 1
165 243 1
165 395 1
166 244 1
166 266 1
166 276 1
166 397 1
167 210 1
167 256 1
167 328 1
167 346 1
167 351 1
167 384 1
168 223 1
168 227 1
168 256 1
168 264 1
168 289 1
168 322 1
168 346 1
168 363 1
169 199 1
169 232 1
169 274 1
169 303 1
169 379 1
170 181 1
170 224 1
170 251 1
170 278 1
170 308 1
170 331 1
170 389 1
170 400 1
171 258 1
171 267 1
171 274 1
171 287 1
171 346 1
171 349 1
172 234 1
172 259 1
172 346 1
172 354 1
172 390 1
173 234 1
173 263 1
173 265 1
173 369 1
174 253 1
174 268 1
174 324 1
175 241 1
175 252 1
175 275 1
175 277 1
175 291 1
175 312 1
175 393 1
176 186 1
176 275 1
176 343 1
176 363 1
177 179 1
177 184 1
177 216 1
177 243 1
177 274 1
177 297 1
177 325 1
177 381 1
177 385 1
177 386 1
178 188 1
178 257 1
178 268 1
178 287 1
178 303 1
178 353 1
178 373 1
178 377 1
178 389 1
179 192 1
179 213 1
179 282 1
179 295 1
179 346 1
179 365 1
179 375 1
180 229 1
180 239 1
180 299 1
180 365 1
180 398 1
181 262 1
181 270 1
181 357 1
181 377 1
182 184 1
182 203 1
182 271 1
182 287 1
182 311 1
182 341 1
183 207 1
183 214 1
183 222 1
183 224 1
183 245 1
183 400 1
184 247 1
184 263 1
184 303 1
184 327 1
184 331 1
185 222 1
185 232 1
185 293 1
185 315 1
185 337 1
185 340 1
185 397 1
186 206 1
186 225 1
186 254 1
186 290 1
186 304 1
186 309 1
186 314 1
187 289 1
187 366 1
188 199 1
188 232 1
188 237 1
188 254 1
188 274 1
188 334 1
188 352 1
188 378 1
189 198 1
189 201 1
189 273 1
189 327 1
189 334 1
189 385 1
189 395 1
190 228 1
190 231 1
190 309 1
190 334 1
190 397 1
191 320 1
191 321 1
191 348 1
191 376 1
191 384 1
192 213 1
192 310 1
192 377 1
192 378 1
192 389 1
193 209 1
193 292 1
194 220 1
194 292 1
194 350 1
194 367 1
194 370 1
195 215 1
195 248 1
195 257 1
195 336 1
195 368 1
195 371 1
195 380 1
195 387 1
196 245 1
196 296 1
196 316 1
196 361 1
197 262 1
197 265 1
197 268 1
197 290 1
197 391 1
197 399 1
198 211 1
198 238 1
198 261 1
198 378 1
198 400 1
199 221 1
199 237 1
199 299 1
199 301 1
199 316 1
199 367 1
199 378 1
199 380 1
200 230 1
200 248 1
200 307 1
200 312 1
200 319 1
200 377 1
200 378 1
201 218 1
201 229 1
201 248 1
201 257 1
201 271 1
201 327 1
201 398 1
202 243 1
202 293 1
202 338 1
202 386 1
202 394 1
203 238 1
203 240 1
203 370 1
203 378 1
203 398 1
204 206 1
204 216 1
204 218 1
204 316 1
204 374 1
204 387 1
204 392 1
204 399 1
205 257 1
205 288 1
205 338 1
205 351 1
206 239 1
206 261 1
206 358 1
207 314 1
207 381 1
207 384 1
208 212 1
208 227 1
208 329 1
208 372 1
208 377 1
208 393 1
209 215 1
209 250 1
209 258 1
209 259 1
209 315 1
209 327 1
209 392 1
210 346 1
210 394 1
210 395 1
211 218 1
211 250 1
211 279 1
211 287 1
211 303 1
211 338 1
211 349 1
212 238 1
212 252 1
212 283 1
212 320 1
212 333 1
213 253 1
213 295 1
213 305 1
213 312 1
213 324 1
213 372 1
214 241 1
214 262 1
214 265 1
214 282 1
214 319 1
214 339 1
214 380 1
215 230 1
215 295 1
215 311 1
215 352 1
216 227 1
216 292 1
216 314 1
216 334 1
216 382 1
217 273 1
217 358 1
218 335 1
218 355 1
218 359 1
219 248 1
219 342 1
219 343 1
220 258 1
220 280 1
220 394 1
220 398 1
220 400 1
221 232 1
221 273 1
221 291 1
221 312 1
221 324 1
221 397 1
222 243 1
222 267 1
222 285 1
222 299 1
222 310 1
222 313 1
222 351 1
222 390 1
223 260 1
223 273 1
223 317 1
223 320 1
224 269 1
224 324 1
224 354 1
224 358 1
224 361 1
224 374 1
225 240 1
225 272 1
225 347 1
226 266 1
226 285 1
226 325 1
226 342 1
227 303 1
228 234 1
228 300 1
228 331 1
228 348 1
228 368 1
229 276 1
229 319 1
229 371 1
230 233 1
230 237 1
230 272 1
230 304 1
230 318 1
230 326 1
230 365 1
230 375 1
231 273 1
231 282 1
231 288 1
231 293 1
231 301 1
231 307 1
231 341 1
232 259 1
232 278 1
232 318 1
232 397 1
233 247 1
233 257 1
233 300 1
233 314 1
234 276 1
234 285 1
234 349 1
235 249 1
235 344 1
236 274 1
236 329 1
236 351 1
237 263 1
237 304 1
237 315 1
237 316 1
237 327 1
238 263 1
238 293 1
238 321 1
238 323 1
238 353 1
239 268 1
239 276 1
239 299 1
239 311 1
239 346 1
240 285 1
240 336 1
240 340 1
241 242 1
241 279 1
241 318 1
241 327 1
241 334 1
241 396 1
242 264 1
242 295 1
242 320 1
242 323 1
242 324 1
242 332 1
243 272 1
243 278 1
243 343 1
243 356 1
244 248 1
244 250 1
244 256 1
244 275 1
244 299 1
244 347 1
244 370 1
245 253 1
245 308 1
245 372 1
245 394 1
246 268 1
246 317 1
246 365 1
247 281 1
247 289 1
247 296 1
247 324 1
248 288 1
249 295 1
249 334 1
249 365 1
250 276 1
250 278 1
250 316 1
250 337 1
250 371 1
251 301 1
251 360 1
251 373 1
252 253 1
252 270 1
252 272 1
252 308 1
252 336 1
252 358 1
253 256 1
253 262 1
253 269 1
253 291 1
253 326 1
253 348 1
253 364 1
253 397 1
254 285 1
254 327 1
254 359 1
254 381 1
255 283 1
255 291 1
255 297 1
255 308 1
256 295 1
256 308 1
256 363 1
257 337 1
257 360 1
257 366 1
258 300 1
258 304 1
259 362 1
260 292 1
260 320 1
260 371 1
260 382 1
261 345 1
261 376 1
261 389 1
262 336 1
262 354 1
262 370 1
263 281 1
263 292 1
263 308 1
263 326 1
263 345 1
263 353 1
263 387 1
264 306 1
264 357 1
264 359 1
264 387 1
264 390 1
265 273 1
265 330 1
265 342 1
265 394 1
266 315 1
266 319 1
266 384 1
266 392 1
267 321 1
267 367 1
267 391 1
268 305 1
268 308 1
268 351 1
269 288 1
269 371 1
269 398 1
270 275 1
270 353 1
270 374 1
271 313 1
271 365 1
271 388 1
272 279 1
272 297 1
272 304 1
272 310 1
272 352 1
272 356 1
273 307 1
273 344 1
273 364 1
273 397 1
273 399 1
274 284 1
274 345 1
274 350 1
275 333 1
275 342 1
275 358 1
275 367 1
275 397 1
276 371 1
277 279 1
277 346 1
277 359 1
277 366 1
277 369 1
278 300 1
278 365 1
279 286 1
279 370 1
279 381 1
279 388 1
280 301 1
280 343 1
280 372 1
280 396 1
281 285 1
281 302 1
281 392 1
282 296 1
282 370 1
283 398 1
284 316 1
284 378 1
284 386 1
284 394 1
285 296 1
285 300 1
285 379 1
285 398 1
286 296 1
286 304 1
286 335 1
286 356 1
286 367 1
286 378 1
286 392 1
287 361 1
288 305 1
288 307 1
288 317 1
288 352 1
288 364 1
288 385 1
289 304 1
289 310 1
289 358 1
289 363 1
290 300 1
290 334 1
290 365 1
290 390 1
291 312 1
291 322 1
291 325 1
291 380 1
292 308 1
292 329 1
292 382 1
292 383 1
293 317 1
293 342 1
293 347 1
293 348 1
293 349 1
293 355 1
294 311 1
294 321 1
294 358 1
295 350 1
295 387 1
295 392 1
295 400 1
296 305 1
296 335 1
296 366 1
296 367 1
297 318 1
297 323 1
297 327 1
297 373 1
297 384 1
298 300 1
298 351 1
298 360 1
298 383 1
299 310 1
300 390 1
301 333 1
301 346 1
301 354 1
301 392 1
302 313 1
303 320 1
303 325 1
303 382 1
303 387 1
304 317 1
304 349 1
304 367 1
304 380 1
304 394 1
305 328 1
305 369 1
306 360 1
306 375 1
307 324 1
307 345 1
307 350 1
307 358 1
308 363 1
308 371 1
309 342 1
309 350 1
310 332 1
310 355 1
310 382 1
312 388 1
312 395 1
313 337 1
313 343 1
313 397 1
314 341 1
314 366 1
315 319 1
315 344 1
316 371 1
317 324 1
317 382 1
317 383 1
318 364 1
318 400 1
319 320 1
319 322 1
319 353 1
319 358 1
319 370 1
320 329 1
320 350 1
320 394 1
321 377 1
321 388 1
322 354 1
323 324 1
323 340 1
323 379 1
324 337 1
324 370 1
324 381 1
325 383 1
326 333 1
327 333 1
327 367 1
327 399 1
329 356 1
329 360 1
329 366 1
329 378 1
329 391 1
330 363 1
330 368 1
330 374 1
330 377 1
331 333 1
331 352 1
331 364 1
332 338 1
332 356 1
332 386 1
332 391 1
333 358 1
333 362 1
334 364 1
336 348 1
336 357 1
336 380 1
336 381 1
336 400 1
337 351 1
337 352 1
337 369 1
337 398 1
338 373 1
338 396 1
339 344 1
340 364 1
342 382 1
342 394 1
343 377 1
345 373 1
345 377 1
346 379 1
348 378 1
348 379 1
348 396 1
349 357 1
350 363 1
350 374 1
351 400 1
352 388 1
353 366 1
353 387 1
354 361 1
355 357 1
355 375 1
355 400 1
358 369 1
358 395 1
358 396 1
359 377 1
359 380 1
360 365 1
362 376 1
362 384 1
363 394 1
364 386 1
364 395 1
365 381 1
366 373 1
366 381 1
367 380 1
369 380 1
369 385 1
370 373 1
371 383 1
373 397 1
376 397 1
383 384 1
385 392 1
385 393 1
389 393 1
389 394 1
